c ! encoding i-pc 250
p cnf 352 432
239 -252 0
217 -253 0
87 -254 0
84 -255 0
256 0
257 -258 0
258 -259 0
205 -259 0
-205 -260 0
259 260 -261 0
261 -262 0
34 -262 0
-205 -263 0
263 -264 0
-34 -264 0
262 264 -265 0
265 -266 0
201 -266 0
261 -268 0
267 -268 0
268 -269 0
-201 -269 0
266 269 -270 0
-46 -271 0
-100 -271 0
-185 -271 0
272 -274 0
273 -274 0
270 -275 0
271 -275 0
274 -275 0
275 -276 0
237 -276 0
31 -277 0
100 -277 0
110 -277 0
277 -278 0
164 -278 0
31 -279 0
110 -279 0
279 -280 0
100 -280 0
273 -281 0
272 -281 0
281 -282 0
-100 -282 0
280 282 -283 0
283 -284 0
-164 -284 0
278 284 -285 0
46 -287 0
286 -287 0
287 -288 0
185 -288 0
289 -290 0
290 -291 0
-185 -291 0
288 291 -292 0
261 -293 0
285 -293 0
292 -293 0
293 -295 0
294 -295 0
295 -296 0
34 -296 0
263 -297 0
201 -297 0
261 -298 0
-201 -298 0
297 298 -299 0
46 -300 0
185 -300 0
289 -301 0
301 -302 0
-185 -302 0
300 302 -303 0
-100 -304 0
273 -305 0
272 -305 0
299 -306 0
303 -306 0
304 -306 0
305 -306 0
306 -307 0
-34 -307 0
308 -309 0
-237 -309 0
311 -312 0
312 -313 0
207 -313 0
-207 -314 0
317 -330 0
318 -330 0
319 -330 0
320 -330 0
321 -330 0
322 -330 0
323 -330 0
324 -330 0
325 -330 0
326 -330 0
327 -330 0
328 -330 0
329 -330 0
310 -331 0
315 -331 0
330 -331 0
86 -332 0
-86 -333 0
-84 -335 0
-87 -339 0
-217 -341 0
39 -343 0
-39 -344 0
241 -346 0
-241 -347 0
-239 -351 0
-1 0
-2 0
3 0
-4 0
-5 0
6 0
-7 0
8 0
9 0
10 0
12 0
-13 0
14 0
15 0
16 0
17 0
18 0
-19 0
-20 0
-21 0
22 0
-23 0
-24 0
-26 0
27 0
28 0
-29 0
30 0
-32 0
33 0
-35 0
-36 0
37 0
-38 0
-41 0
-42 0
-43 0
44 0
-45 0
47 0
48 0
49 0
-50 0
51 0
-52 0
53 0
54 0
-55 0
-56 0
57 0
58 0
-59 0
60 0
-61 0
-62 0
63 0
64 0
-65 0
66 0
-67 0
-68 0
69 0
70 0
-71 0
72 0
73 0
74 0
-75 0
76 0
-77 0
-78 0
-79 0
80 0
-81 0
82 0
85 0
88 0
-89 0
90 0
-91 0
92 0
93 0
94 0
95 0
-96 0
-97 0
98 0
-99 0
-101 0
-102 0
103 0
-104 0
-106 0
-108 0
109 0
111 0
-112 0
113 0
-114 0
115 0
116 0
117 0
118 0
120 0
-122 0
123 0
-124 0
125 0
126 0
127 0
128 0
-129 0
-130 0
-131 0
-132 0
133 0
134 0
136 0
-137 0
139 0
-140 0
141 0
142 0
143 0
-144 0
145 0
146 0
-147 0
148 0
-149 0
150 0
-151 0
152 0
-153 0
-154 0
-155 0
158 0
159 0
160 0
-161 0
162 0
163 0
-165 0
-166 0
167 0
168 0
-169 0
-170 0
-171 0
173 0
174 0
-175 0
176 0
177 0
-178 0
-179 0
180 0
-181 0
-182 0
183 0
-184 0
186 0
-187 0
-188 0
-189 0
190 0
-191 0
192 0
-193 0
-194 0
195 0
-196 0
197 0
-198 0
-199 0
200 0
-202 0
203 0
204 0
206 0
-208 0
209 0
-210 0
211 0
-212 0
214 0
-215 0
-216 0
-218 0
-220 0
-221 0
-222 0
223 0
-225 0
226 0
227 0
228 0
229 0
-230 0
-231 0
232 0
-233 0
234 0
-235 0
-236 0
-238 0
-240 0
-242 0
-243 0
244 0
245 0
-246 0
247 0
-248 0
249 0
250 0
-350 351 0
-346 348 0
-345 346 0
-342 343 0
-341 342 0
-340 341 0
-339 340 0
-338 339 0
-332 334 0
-316 331 0
-337 338 0
-343 345 0
-290 291 0
-46 287 289 300 0
-351 352 0
-306 307 0
-283 284 0
-278 285 0
-312 313 0
11 311 0
237 309 0
-308 309 0
-307 308 0
-304 306 0
-303 306 0
-302 303 0
-266 270 0
-300 303 0
-268 269 0
-297 299 0
-296 308 0
-237 276 0
-185 288 300 0
-295 296 0
-31 272 277 279 0
-293 295 0
-311 312 0
110 273 0
-291 292 0
185 271 291 302 0
-289 290 301 0
-287 288 0
-286 287 0
-164 278 0
-256 258 281 301 312 0
-275 276 0
-259 261 0
-331 332 0
-272 274 281 305 0
-288 292 0
-201 266 294 297 0
-298 299 0
-267 268 0
-305 306 0
-110 273 277 279 0
-251 252 253 254 255 333 344 347 0
-269 270 0
-34 262 267 296 0
-265 266 0
100 271 282 304 0
-257 258 0
-274 275 0
25 286 0
-280 283 0
-281 282 0
-349 350 0
-211 337 0
-261 262 268 293 298 0
-264 265 0
34 264 267 307 0
46 271 289 0
-260 261 0
-294 295 0
-273 274 281 305 0
-285 293 0
-282 283 0
40 257 0
-100 277 280 0
31 272 0
-279 280 0
-301 302 0
-263 264 297 0
-270 275 0
-258 259 0
187 349 0
-284 285 0
-292 293 0
-299 306 0
201 269 294 298 0
-205 259 0
205 260 263 0
-207 313 0
-334 335 0
207 314 0
-277 278 0
-271 275 0
-335 336 0
-262 265 0
-186 316 0
